p edge 25 160
e 1 7 5
e 1 13 6
e 1 19 8
e 1 25 5
e 1 2 4
e 1 3 5
e 1 4 2
e 1 5 9
e 1 6 6
e 1 11 9
e 1 16 2
e 1 21 6
e 2 8 6
e 2 14 5
e 2 20 5
e 2 6 3
e 2 3 1
e 2 4 8
e 2 5 5
e 2 7 3
e 2 12 9
e 2 17 5
e 2 22 2
e 3 9 7
e 3 15 10
e 3 7 3
e 3 11 5
e 3 4 1
e 3 5 8
e 3 8 3
e 3 13 4
e 3 18 1
e 3 23 4
e 4 10 5
e 4 8 1
e 4 12 7
e 4 16 9
e 4 5 9
e 4 9 3
e 4 14 10
e 4 19 6
e 4 24 5
e 5 9 3
e 5 13 7
e 5 17 4
e 5 21 3
e 5 10 7
e 5 15 2
e 5 20 10
e 5 25 9
e 6 12 10
e 6 18 3
e 6 24 1
e 6 7 10
e 6 8 10
e 6 9 10
e 6 10 8
e 6 11 8
e 6 16 8
e 6 21 1
e 7 13 6
e 7 19 7
e 7 25 8
e 7 11 1
e 7 8 8
e 7 9 2
e 7 10 4
e 7 12 9
e 7 17 7
e 7 22 3
e 8 14 3
e 8 20 4
e 8 12 8
e 8 16 6
e 8 9 7
e 8 10 4
e 8 13 9
e 8 18 2
e 8 23 10
e 9 15 1
e 9 13 7
e 9 17 3
e 9 21 6
e 9 10 3
e 9 14 3
e 9 19 7
e 9 24 9
e 10 14 5
e 10 18 9
e 10 22 4
e 10 15 7
e 10 20 4
e 10 25 6
e 11 17 8
e 11 23 2
e 11 12 1
e 11 13 4
e 11 14 7
e 11 15 1
e 11 16 6
e 11 21 3
e 12 18 7
e 12 24 5
e 12 16 6
e 12 13 10
e 12 14 8
e 12 15 3
e 12 17 5
e 12 22 8
e 13 19 2
e 13 25 4
e 13 17 9
e 13 21 6
e 13 14 5
e 13 15 2
e 13 18 3
e 13 23 5
e 14 20 2
e 14 18 4
e 14 22 2
e 14 15 7
e 14 19 5
e 14 24 5
e 15 19 4
e 15 23 5
e 15 20 8
e 15 25 4
e 16 22 8
e 16 17 4
e 16 18 1
e 16 19 9
e 16 20 7
e 16 21 2
e 17 23 2
e 17 21 8
e 17 18 9
e 17 19 9
e 17 20 2
e 17 22 9
e 18 24 4
e 18 22 2
e 18 19 2
e 18 20 2
e 18 23 3
e 19 25 6
e 19 23 9
e 19 20 7
e 19 24 7
e 20 24 10
e 20 25 2
e 21 22 2
e 21 23 6
e 21 24 10
e 21 25 8
e 22 23 10
e 22 24 2
e 22 25 2
e 23 24 9
e 23 25 10
e 24 25 4